c 20 promenne 100 klauzuli
c weights 4 9 7 -4 5 -9 6 -9 -4 6 -8 6 4 -1 -10 -8 7 3 1 -10
p cnf 20 100
3 4 -6 7 -9 10 -11 -12 13 15 -17 -19 20 0
1 2 -3 -5 6 -7 -8 -9 -10 -11 -12 -13 -14 -15 -16 -17 18 19 0
-1 -2 -5 -6 7 8 12 -13 -14 -15 16 17 18 20 0
-1 4 5 -6 7 8 -10 -11 -13 -16 17 18 19 -20 0
-1 -2 -4 -5 7 9 10 -11 12 14 -16 -17 -18 -19 20 0
-1 5 -6 -7 8 -9 -10 -13 15 16 -17 -18 -19 -20 0
2 4 -5 6 7 8 -9 10 11 12 -13 -14 15 16 18 -19 0
-2 3 -4 5 6 -7 9 -10 11 12 -14 16 -18 19 -20 0
1 3 4 -7 -9 -11 12 14 -15 16 -19 20 0
1 2 -3 -4 -5 6 -7 12 14 -15 -16 -17 -18 19 -20 0
-1 -4 -6 7 -8 10 11 -12 -13 -14 17 18 -19 -20 0
1 -3 -4 -6 10 12 -13 14 -15 -16 19 -20 0
1 -4 -5 6 9 -11 -13 -15 16 -18 -19 20 0
1 -3 -4 5 7 9 -10 11 -12 -13 15 -16 17 18 -19 0
-3 -4 -6 -7 -8 9 11 12 13 -14 15 -16 17 -19 20 0
-1 -3 4 -6 7 -8 -9 10 13 15 -16 -17 18 20 0
-1 2 3 4 5 7 -8 9 -10 -11 -13 14 -15 16 17 -18 19 0
1 2 3 6 -9 -10 11 12 13 14 15 -16 18 -19 0
-4 6 7 -8 -9 10 11 -12 13 -14 15 -16 -17 -18 19 20 0
1 3 -4 -6 -7 -10 -11 12 13 14 15 -16 -17 -19 -20 0
1 -3 5 6 8 -9 -13 14 -16 17 -18 19 0
1 2 4 -5 -6 -7 -8 -9 10 -13 -14 15 -16 -17 -19 0
2 5 7 -8 -10 11 12 14 15 16 -18 -19 0
1 -2 -3 5 7 -8 -11 -12 -16 -17 -19 0
1 3 -4 -5 7 8 -9 -11 -12 13 -14 -16 17 -18 -19 20 0
1 -2 3 4 -5 -6 7 8 -9 11 -12 13 14 16 -18 -19 -20 0
-1 2 3 4 5 6 -7 10 11 -12 13 -14 15 16 17 -18 20 0
1 -3 -4 -9 10 -11 -12 -13 14 -16 -18 0
-3 4 6 -8 10 -11 14 -15 18 -19 -20 0
-1 -2 3 4 5 -6 -9 10 -11 12 13 -14 15 16 -17 18 19 0
2 4 -8 -9 -10 -11 12 -15 -19 20 0
-1 -2 7 -9 10 11 -13 -14 -15 -16 -17 -19 0
1 2 4 -5 7 8 -9 10 11 -13 16 -17 -18 -19 -20 0
-1 -2 3 -4 5 7 -8 10 12 13 -14 15 -16 17 18 -19 0
-1 -2 -3 -4 5 6 8 9 -13 -14 15 -17 -18 19 0
2 -3 4 -5 -6 -7 8 -9 10 11 -12 13 14 -15 -17 -18 -19 -20 0
-1 2 -3 4 5 6 -7 -8 -11 12 -13 -14 15 16 -18 19 0
-2 -3 5 -6 -8 -10 -11 12 13 15 16 17 -18 -19 20 0
-2 -3 -5 -6 7 -8 -9 10 -11 -13 14 16 -17 -18 19 0
-2 4 5 7 -8 -9 -13 -15 -18 -19 -20 0
2 3 5 6 -7 -10 -11 -13 14 15 17 -19 0
-1 -3 -5 6 -7 8 -9 -11 -12 14 -15 19 -20 0
1 2 5 -6 7 9 -10 -13 15 17 -19 20 0
1 3 5 7 9 -10 14 -15 17 -19 20 0
4 -7 -8 10 11 -12 13 15 -16 -17 18 19 -20 0
-1 -4 -5 -7 8 -9 10 12 -13 -14 -16 17 19 0
-1 4 -5 -6 -7 8 -9 -11 14 15 16 -17 18 20 0
-3 -6 -9 10 12 13 14 16 17 -19 20 0
1 2 3 4 -5 -6 8 -11 -12 -16 -19 -20 0
-3 -4 5 6 -8 -10 -11 12 15 19 20 0
1 2 -4 -5 7 8 -9 10 11 12 13 16 -17 -18 20 0
2 4 -5 -6 7 -9 -10 -11 12 -13 14 16 -18 -19 0
1 3 -4 6 -7 9 -11 12 -13 14 15 -20 0
-2 3 -4 5 7 8 -10 12 13 -14 -15 -16 0
-1 4 -6 -7 8 -11 12 13 -14 17 -18 -19 20 0
-3 -6 -8 -11 12 -13 -15 -16 0
1 -3 4 -5 7 -9 10 -11 -12 -13 -14 -15 -16 -17 18 19 20 0
-1 2 -3 -5 6 -8 -9 11 17 18 -20 0
-2 3 4 5 -6 -7 -10 -11 -13 14 -16 -17 -20 0
1 -6 7 8 -9 -10 11 -16 -19 -20 0
2 3 -4 5 -7 -8 -9 10 11 -12 -13 -14 -15 -17 18 19 -20 0
1 -2 3 -5 6 7 -8 10 11 -13 15 16 17 -18 0
-1 2 4 -5 9 10 -11 -12 13 -14 15 16 19 -20 0
-2 3 4 -5 -6 -8 9 -10 -13 14 15 19 20 0
1 2 3 -5 -6 -9 -10 11 12 -13 14 -15 16 17 18 -19 0
-2 -3 -4 -5 -6 -8 -15 17 18 -19 -20 0
-1 2 -3 -4 5 6 -7 -8 -10 -11 12 13 -15 -16 -17 -20 0
-2 3 4 -5 7 -8 -10 -11 -19 0
-1 2 -4 5 6 9 -10 11 -12 -13 14 15 -16 -17 -18 -19 20 0
1 -2 5 -6 -7 -8 9 -10 11 -12 -13 16 17 -18 19 20 0
-1 -6 -7 -8 -9 -10 -11 -15 -16 -17 18 -19 0
-1 -7 -8 9 -10 11 -12 13 -14 15 -16 -17 18 19 0
-2 5 -6 8 11 -12 14 16 17 -19 -20 0
-1 3 4 -6 8 10 -11 -12 -13 15 16 17 -18 19 0
1 2 3 4 5 -6 7 8 -9 -10 -11 -12 14 -16 19 -20 0
-1 2 3 -5 -7 8 -9 -10 12 -13 -15 -16 18 -19 0
-3 -4 -5 -6 7 10 -11 -12 13 -15 16 -17 19 20 0
1 2 3 4 5 6 8 -9 -10 -11 -12 13 -14 -15 16 17 -19 -20 0
1 2 -4 -5 7 8 10 11 -13 14 -17 19 -20 0
1 4 5 -6 -7 -11 13 -14 16 17 18 0
1 -2 -4 5 6 7 8 10 11 12 13 -14 -15 16 -17 -18 0
1 2 3 4 5 7 -9 11 13 14 15 -16 -17 -18 20 0
2 4 5 6 -7 -10 12 16 17 18 -19 0
1 2 3 5 -9 10 12 13 -14 -15 16 18 19 20 0
1 2 -5 -6 8 -9 10 11 13 -15 16 18 19 20 0
1 -2 3 -4 5 -9 -11 -12 14 16 17 19 -20 0
-2 3 -4 6 -7 -8 -9 -11 -13 14 -15 17 -18 -20 0
1 -3 5 6 -8 -10 -12 14 -15 16 18 -19 -20 0
1 2 3 4 5 6 -7 11 12 -13 -14 15 -16 -17 18 0
-1 3 4 -5 -6 7 -9 10 -11 -12 13 15 -16 17 19 -20 0
-1 2 -3 -4 -7 8 -9 -10 -12 -14 16 -17 -18 -20 0
-1 2 3 5 -6 9 10 12 -13 -14 -16 17 -18 -20 0
3 -4 -7 8 9 -11 12 13 14 15 16 -17 -18 -20 0
1 -3 4 -5 6 7 8 -9 -11 -12 18 -19 -20 0
1 -2 -3 4 7 -8 9 -11 -12 -14 16 -17 -18 -19 0
-1 2 -3 -4 -6 -7 -8 -10 -11 14 16 -17 19 0
-1 2 -5 6 7 -9 -10 11 13 -14 16 -18 19 20 0
1 2 -4 -5 6 7 -8 9 10 -11 12 14 16 0
2 -3 -6 -8 9 -10 11 12 13 -14 -15 -17 18 19 20 0
-1 -2 4 5 -6 -7 8 -10 -13 14 17 18 -19 0
